p cnf 967 2484
51 -700 -1 0
-51 700 0
-51 1 0
52 -51 -3 0
-52 51 0
-52 3 0
53 -5 -4 0
-53 5 0
-53 4 0
54 -53 -6 0
-54 53 0
-54 6 0
55 -701 -702 0
-55 701 0
-55 702 0
56 -7 -2 0
-56 7 0
-56 2 0
57 -56 -5 0
-57 56 0
-57 5 0
58 -703 -55 0
-58 703 0
-58 55 0
59 -9 -8 0
-59 9 0
-59 8 0
60 -59 -704 0
-60 59 0
-60 704 0
61 -705 -58 0
-61 705 0
-61 58 0
62 -706 -10 0
-62 706 0
-62 10 0
63 -62 -12 0
-63 62 0
-63 12 0
64 -707 -61 0
-64 707 0
-64 61 0
65 -14 -13 0
-65 14 0
-65 13 0
66 -65 -15 0
-66 65 0
-66 15 0
67 -708 -64 0
-67 708 0
-67 64 0
68 -709 -710 0
-68 709 0
-68 710 0
69 -68 -2 0
-69 68 0
-69 2 0
70 -711 -67 0
-70 711 0
-70 67 0
71 -17 -1 0
-71 17 0
-71 1 0
72 -71 -712 0
-72 71 0
-72 712 0
73 -713 -70 0
-73 713 0
-73 70 0
74 -20 -19 0
-74 20 0
-74 19 0
75 -74 -712 0
-75 74 0
-75 712 0
76 -714 -73 0
-76 714 0
-76 73 0
77 -22 -715 0
-77 22 0
-77 715 0
78 -77 -23 0
-78 77 0
-78 23 0
79 -716 -76 0
-79 716 0
-79 76 0
80 -717 -10 0
-80 717 0
-80 10 0
81 -80 -709 0
-81 80 0
-81 709 0
82 -718 -79 0
-82 718 0
-82 79 0
83 -25 -10 0
-83 25 0
-83 10 0
84 -83 -706 0
-84 83 0
-84 706 0
85 -719 -82 0
-85 719 0
-85 82 0
86 -26 -720 0
-86 26 0
-86 720 0
87 -86 -5 0
-87 86 0
-87 5 0
88 -721 -85 0
-88 721 0
-88 85 0
89 -28 -27 0
-89 28 0
-89 27 0
90 -89 -29 0
-90 89 0
-90 29 0
91 -722 -88 0
-91 722 0
-91 88 0
92 -723 -724 0
-92 723 0
-92 724 0
93 -92 -31 0
-93 92 0
-93 31 0
94 -725 -91 0
-94 725 0
-94 91 0
95 -726 -727 0
-95 726 0
-95 727 0
96 -95 -728 0
-96 95 0
-96 728 0
97 -729 -94 0
-97 729 0
-97 94 0
98 -730 -731 0
-98 730 0
-98 731 0
99 -98 -732 0
-99 98 0
-99 732 0
100 -733 -97 0
-100 733 0
-100 97 0
101 -717 -1 0
-101 717 0
-101 1 0
102 -101 -732 0
-102 101 0
-102 732 0
103 -734 -100 0
-103 734 0
-103 100 0
104 -27 -717 0
-104 27 0
-104 717 0
105 -104 -735 0
-105 104 0
-105 735 0
106 -736 -103 0
-106 736 0
-106 103 0
107 -32 -14 0
-107 32 0
-107 14 0
108 -107 -5 0
-108 107 0
-108 5 0
109 -737 -106 0
-109 737 0
-109 106 0
110 -32 -738 0
-110 32 0
-110 738 0
111 -110 -739 0
-111 110 0
-111 739 0
112 -740 -109 0
-112 740 0
-112 109 0
113 -37 -741 0
-113 37 0
-113 741 0
114 -113 -38 0
-114 113 0
-114 38 0
115 -742 -112 0
-115 742 0
-115 112 0
116 -39 -11 0
-116 39 0
-116 11 0
117 -116 -7 0
-117 116 0
-117 7 0
118 -743 -115 0
-118 743 0
-118 115 0
119 -39 -744 0
-119 39 0
-119 744 0
120 -119 -6 0
-120 119 0
-120 6 0
121 -745 -118 0
-121 745 0
-121 118 0
122 -19 -746 0
-122 19 0
-122 746 0
123 -122 -13 0
-123 122 0
-123 13 0
124 -747 -121 0
-124 747 0
-124 121 0
125 -40 -37 0
-125 40 0
-125 37 0
126 -125 -706 0
-126 125 0
-126 706 0
127 -748 -124 0
-127 748 0
-127 124 0
128 -730 -728 0
-128 730 0
-128 728 0
129 -128 -31 0
-129 128 0
-129 31 0
130 -749 -127 0
-130 749 0
-130 127 0
131 -41 -712 0
-131 41 0
-131 712 0
132 -131 -23 0
-132 131 0
-132 23 0
133 -750 -130 0
-133 750 0
-133 130 0
134 -5 -724 0
-134 5 0
-134 724 0
135 -134 -751 0
-135 134 0
-135 751 0
136 -752 -133 0
-136 752 0
-136 133 0
137 -724 -2 0
-137 724 0
-137 2 0
138 -137 -704 0
-138 137 0
-138 704 0
139 -753 -136 0
-139 753 0
-139 136 0
140 -22 -709 0
-140 22 0
-140 709 0
141 -140 -7 0
-141 140 0
-141 7 0
142 -754 -139 0
-142 754 0
-142 139 0
143 -755 -724 0
-143 755 0
-143 724 0
144 -143 -709 0
-144 143 0
-144 709 0
145 -756 -142 0
-145 756 0
-145 142 0
146 -42 -757 0
-146 42 0
-146 757 0
147 -146 -758 0
-147 146 0
-147 758 0
148 -759 -145 0
-148 759 0
-148 145 0
149 -4 -746 0
-149 4 0
-149 746 0
150 -149 -735 0
-150 149 0
-150 735 0
151 -760 -148 0
-151 760 0
-151 148 0
152 -761 -762 0
-152 761 0
-152 762 0
153 -152 -746 0
-153 152 0
-153 746 0
154 -763 -151 0
-154 763 0
-154 151 0
155 -764 -12 0
-155 764 0
-155 12 0
156 -155 -6 0
-156 155 0
-156 6 0
157 -765 -154 0
-157 765 0
-157 154 0
158 -26 -766 0
-158 26 0
-158 766 0
159 -158 -18 0
-159 158 0
-159 18 0
160 -767 -157 0
-160 767 0
-160 157 0
161 -32 -10 0
-161 32 0
-161 10 0
162 -161 -768 0
-162 161 0
-162 768 0
163 -769 -160 0
-163 769 0
-163 160 0
164 -755 -757 0
-164 755 0
-164 757 0
165 -164 -704 0
-165 164 0
-165 704 0
166 -770 -163 0
-166 770 0
-166 163 0
167 -30 -744 0
-167 30 0
-167 744 0
168 -167 -16 0
-168 167 0
-168 16 0
169 -771 -166 0
-169 771 0
-169 166 0
170 -45 -744 0
-170 45 0
-170 744 0
171 -170 -758 0
-171 170 0
-171 758 0
172 -772 -169 0
-172 772 0
-172 169 0
173 -43 -715 0
-173 43 0
-173 715 0
174 -173 -11 0
-174 173 0
-174 11 0
175 -773 -172 0
-175 773 0
-175 172 0
176 -735 -9 0
-176 735 0
-176 9 0
177 -176 -3 0
-177 176 0
-177 3 0
178 -774 -175 0
-178 774 0
-178 175 0
179 -46 -42 0
-179 46 0
-179 42 0
180 -179 -775 0
-180 179 0
-180 775 0
181 -776 -178 0
-181 776 0
-181 178 0
182 -764 -710 0
-182 764 0
-182 710 0
183 -182 -777 0
-183 182 0
-183 777 0
184 -778 -181 0
-184 778 0
-184 181 0
185 -766 -746 0
-185 766 0
-185 746 0
186 -185 -18 0
-186 185 0
-186 18 0
187 -779 -184 0
-187 779 0
-187 184 0
188 -21 -19 0
-188 21 0
-188 19 0
189 -188 -751 0
-189 188 0
-189 751 0
190 -780 -187 0
-190 780 0
-190 187 0
191 -781 -710 0
-191 781 0
-191 710 0
192 -191 -764 0
-192 191 0
-192 764 0
193 -782 -190 0
-193 782 0
-193 190 0
194 -768 -43 0
-194 768 0
-194 43 0
195 -194 -23 0
-195 194 0
-195 23 0
196 -783 -193 0
-196 783 0
-196 193 0
197 -45 -784 0
-197 45 0
-197 784 0
198 -197 -739 0
-198 197 0
-198 739 0
199 -785 -196 0
-199 785 0
-199 196 0
200 -712 -727 0
-200 712 0
-200 727 0
201 -200 -11 0
-201 200 0
-201 11 0
202 -786 -199 0
-202 786 0
-202 199 0
203 -787 -788 0
-203 787 0
-203 788 0
204 -203 -11 0
-204 203 0
-204 11 0
205 -789 -202 0
-205 789 0
-205 202 0
206 -731 -738 0
-206 731 0
-206 738 0
207 -206 -739 0
-207 206 0
-207 739 0
208 -790 -205 0
-208 790 0
-208 205 0
209 -731 -741 0
-209 731 0
-209 741 0
210 -209 -791 0
-210 209 0
-210 791 0
211 -792 -208 0
-211 792 0
-211 208 0
212 -788 -710 0
-212 788 0
-212 710 0
213 -212 -704 0
-213 212 0
-213 704 0
214 -793 -211 0
-214 793 0
-214 211 0
215 -38 -709 0
-215 38 0
-215 709 0
216 -215 -728 0
-216 215 0
-216 728 0
217 -794 -214 0
-217 794 0
-217 214 0
218 -715 -20 0
-218 715 0
-218 20 0
219 -218 -14 0
-219 218 0
-219 14 0
220 -795 -217 0
-220 795 0
-220 217 0
221 -41 -26 0
-221 41 0
-221 26 0
222 -221 -738 0
-222 221 0
-222 738 0
223 -796 -220 0
-223 796 0
-223 220 0
224 -784 -30 0
-224 784 0
-224 30 0
225 -224 -40 0
-225 224 0
-225 40 0
226 -797 -223 0
-226 797 0
-226 223 0
227 -50 -40 0
-227 50 0
-227 40 0
228 -227 -28 0
-228 227 0
-228 28 0
229 -798 -226 0
-229 798 0
-229 226 0
230 -741 -4 0
-230 741 0
-230 4 0
231 -230 -20 0
-231 230 0
-231 20 0
232 -799 -229 0
-232 799 0
-232 229 0
233 -730 -24 0
-233 730 0
-233 24 0
234 -233 -704 0
-234 233 0
-234 704 0
235 -800 -232 0
-235 800 0
-235 232 0
236 -41 -764 0
-236 41 0
-236 764 0
237 -236 -801 0
-237 236 0
-237 801 0
238 -802 -235 0
-238 802 0
-238 235 0
239 -758 -803 0
-239 758 0
-239 803 0
240 -239 -738 0
-240 239 0
-240 738 0
241 -804 -238 0
-241 804 0
-241 238 0
242 -46 -758 0
-242 46 0
-242 758 0
243 -242 -47 0
-243 242 0
-243 47 0
244 -805 -241 0
-244 805 0
-244 241 0
245 -46 -781 0
-245 46 0
-245 781 0
246 -245 -791 0
-246 245 0
-246 791 0
247 -806 -244 0
-247 806 0
-247 244 0
248 -788 -755 0
-248 788 0
-248 755 0
249 -248 -19 0
-249 248 0
-249 19 0
250 -807 -247 0
-250 807 0
-250 247 0
251 -27 -715 0
-251 27 0
-251 715 0
252 -251 -11 0
-252 251 0
-252 11 0
253 -808 -250 0
-253 808 0
-253 250 0
254 -803 -18 0
-254 803 0
-254 18 0
255 -254 -738 0
-255 254 0
-255 738 0
256 -809 -253 0
-256 809 0
-256 253 0
257 -810 -17 0
-257 810 0
-257 17 0
258 -257 -803 0
-258 257 0
-258 803 0
259 -811 -256 0
-259 811 0
-259 256 0
260 -44 -812 0
-260 44 0
-260 812 0
261 -260 -775 0
-261 260 0
-261 775 0
262 -813 -259 0
-262 813 0
-262 259 0
263 -810 -19 0
-263 810 0
-263 19 0
264 -263 -728 0
-264 263 0
-264 728 0
265 -814 -262 0
-265 814 0
-265 262 0
266 -761 -27 0
-266 761 0
-266 27 0
267 -266 -728 0
-267 266 0
-267 728 0
268 -815 -265 0
-268 815 0
-268 265 0
269 -40 -18 0
-269 40 0
-269 18 0
270 -269 -816 0
-270 269 0
-270 816 0
271 -817 -268 0
-271 817 0
-271 268 0
272 -803 -818 0
-272 803 0
-272 818 0
273 -272 -18 0
-273 272 0
-273 18 0
274 -819 -271 0
-274 819 0
-274 271 0
275 -236 -5 0
-275 236 0
-275 5 0
276 -820 -274 0
-276 820 0
-276 274 0
277 -34 -19 0
-277 34 0
-277 19 0
278 -277 -28 0
-278 277 0
-278 28 0
279 -821 -276 0
-279 821 0
-279 276 0
280 -712 -12 0
-280 712 0
-280 12 0
281 -280 -739 0
-281 280 0
-281 739 0
282 -822 -279 0
-282 822 0
-282 279 0
283 -818 -7 0
-283 818 0
-283 7 0
284 -283 -23 0
-284 283 0
-284 23 0
285 -823 -282 0
-285 823 0
-285 282 0
286 -41 -762 0
-286 41 0
-286 762 0
287 -286 -13 0
-287 286 0
-287 13 0
288 -824 -285 0
-288 824 0
-288 285 0
289 -712 -700 0
-289 712 0
-289 700 0
290 -289 -47 0
-290 289 0
-290 47 0
291 -825 -288 0
-291 825 0
-291 288 0
292 -787 -4 0
-292 787 0
-292 4 0
293 -292 -22 0
-293 292 0
-293 22 0
294 -826 -291 0
-294 826 0
-294 291 0
295 -810 -731 0
-295 810 0
-295 731 0
296 -295 -24 0
-296 295 0
-296 24 0
297 -827 -294 0
-297 827 0
-297 294 0
298 -726 -746 0
-298 726 0
-298 746 0
299 -298 -11 0
-299 298 0
-299 11 0
300 -828 -297 0
-300 828 0
-300 297 0
301 -758 -1 0
-301 758 0
-301 1 0
302 -301 -739 0
-302 301 0
-302 739 0
303 -829 -300 0
-303 829 0
-303 300 0
304 -49 -818 0
-304 49 0
-304 818 0
305 -304 -47 0
-305 304 0
-305 47 0
306 -830 -303 0
-306 830 0
-306 303 0
307 -39 -831 0
-307 39 0
-307 831 0
308 -307 -2 0
-308 307 0
-308 2 0
309 -832 -306 0
-309 832 0
-309 306 0
310 -41 -724 0
-310 41 0
-310 724 0
311 -310 -730 0
-311 310 0
-311 730 0
312 -833 -309 0
-312 833 0
-312 309 0
313 -22 -8 0
-313 22 0
-313 8 0
314 -313 -704 0
-314 313 0
-314 704 0
315 -834 -312 0
-315 834 0
-315 312 0
316 -33 -27 0
-316 33 0
-316 27 0
317 -316 -739 0
-317 316 0
-317 739 0
318 -835 -315 0
-318 835 0
-318 315 0
319 -39 -17 0
-319 39 0
-319 17 0
320 -319 -24 0
-320 319 0
-320 24 0
321 -836 -318 0
-321 836 0
-321 318 0
322 -723 -710 0
-322 723 0
-322 710 0
323 -322 -777 0
-323 322 0
-323 777 0
324 -837 -321 0
-324 837 0
-324 321 0
325 -738 -13 0
-325 738 0
-325 13 0
326 -325 -775 0
-326 325 0
-326 775 0
327 -838 -324 0
-327 838 0
-327 324 0
328 -788 -45 0
-328 788 0
-328 45 0
329 -328 -44 0
-329 328 0
-329 44 0
330 -839 -327 0
-330 839 0
-330 327 0
331 -42 -16 0
-331 42 0
-331 16 0
332 -331 -7 0
-332 331 0
-332 7 0
333 -840 -330 0
-333 840 0
-333 330 0
334 -22 -20 0
-334 22 0
-334 20 0
335 -334 -728 0
-335 334 0
-335 728 0
336 -841 -333 0
-336 841 0
-336 333 0
337 -818 -1 0
-337 818 0
-337 1 0
338 -337 -34 0
-338 337 0
-338 34 0
339 -842 -336 0
-339 842 0
-339 336 0
340 -744 -715 0
-340 744 0
-340 715 0
341 -340 -10 0
-341 340 0
-341 10 0
342 -843 -339 0
-342 843 0
-342 339 0
343 -726 -10 0
-343 726 0
-343 10 0
344 -343 -16 0
-344 343 0
-344 16 0
345 -844 -342 0
-345 844 0
-345 342 0
346 -712 -7 0
-346 712 0
-346 7 0
347 -346 -47 0
-347 346 0
-347 47 0
348 -845 -345 0
-348 845 0
-348 345 0
349 -812 -9 0
-349 812 0
-349 9 0
350 -349 -31 0
-350 349 0
-350 31 0
351 -846 -348 0
-351 846 0
-351 348 0
352 -49 -41 0
-352 49 0
-352 41 0
353 -352 -847 0
-353 352 0
-353 847 0
354 -848 -351 0
-354 848 0
-354 351 0
355 -37 -10 0
-355 37 0
-355 10 0
356 -355 -801 0
-356 355 0
-356 801 0
357 -849 -354 0
-357 849 0
-357 354 0
358 -761 -712 0
-358 761 0
-358 712 0
359 -358 -709 0
-359 358 0
-359 709 0
360 -850 -357 0
-360 850 0
-360 357 0
361 -49 -851 0
-361 49 0
-361 851 0
362 -361 -6 0
-362 361 0
-362 6 0
363 -852 -360 0
-363 852 0
-363 360 0
364 -717 -853 0
-364 717 0
-364 853 0
365 -364 -704 0
-365 364 0
-365 704 0
366 -854 -363 0
-366 854 0
-366 363 0
367 -755 -851 0
-367 755 0
-367 851 0
368 -367 -726 0
-368 367 0
-368 726 0
369 -855 -366 0
-369 855 0
-369 366 0
370 -755 -25 0
-370 755 0
-370 25 0
371 -370 -700 0
-371 370 0
-371 700 0
372 -856 -369 0
-372 856 0
-372 369 0
373 -762 -738 0
-373 762 0
-373 738 0
374 -373 -735 0
-374 373 0
-374 735 0
375 -857 -372 0
-375 857 0
-375 372 0
376 -39 -741 0
-376 39 0
-376 741 0
377 -376 -16 0
-377 376 0
-377 16 0
378 -858 -375 0
-378 858 0
-378 375 0
379 -263 -28 0
-379 263 0
-379 28 0
380 -859 -378 0
-380 859 0
-380 378 0
381 -860 -27 0
-381 860 0
-381 27 0
382 -381 -739 0
-382 381 0
-382 739 0
383 -861 -380 0
-383 861 0
-383 380 0
384 -744 -728 0
-384 744 0
-384 728 0
385 -384 -777 0
-385 384 0
-385 777 0
386 -862 -383 0
-386 862 0
-386 383 0
387 -784 -744 0
-387 784 0
-387 744 0
388 -387 -15 0
-388 387 0
-388 15 0
389 -863 -386 0
-389 863 0
-389 386 0
390 -33 -17 0
-390 33 0
-390 17 0
391 -390 -23 0
-391 390 0
-391 23 0
392 -864 -389 0
-392 864 0
-392 389 0
393 -44 -24 0
-393 44 0
-393 24 0
394 -393 -777 0
-394 393 0
-394 777 0
395 -865 -392 0
-395 865 0
-395 392 0
396 -755 -728 0
-396 755 0
-396 728 0
397 -396 -31 0
-397 396 0
-397 31 0
398 -866 -395 0
-398 866 0
-398 395 0
399 -784 -724 0
-399 784 0
-399 724 0
400 -399 -739 0
-400 399 0
-400 739 0
401 -867 -398 0
-401 867 0
-401 398 0
402 -43 -781 0
-402 43 0
-402 781 0
403 -402 -816 0
-403 402 0
-403 816 0
404 -868 -401 0
-404 868 0
-404 401 0
405 -33 -741 0
-405 33 0
-405 741 0
406 -405 -5 0
-406 405 0
-406 5 0
407 -869 -404 0
-407 869 0
-407 404 0
408 -27 -709 0
-408 27 0
-408 709 0
409 -408 -768 0
-409 408 0
-409 768 0
410 -870 -407 0
-410 870 0
-410 407 0
411 -810 -44 0
-411 810 0
-411 44 0
412 -411 -15 0
-412 411 0
-412 15 0
413 -871 -410 0
-413 871 0
-413 410 0
414 -8 -4 0
-414 8 0
-414 4 0
415 -414 -860 0
-415 414 0
-415 860 0
416 -872 -413 0
-416 872 0
-416 413 0
417 -762 -755 0
-417 762 0
-417 755 0
418 -417 -23 0
-418 417 0
-418 23 0
419 -873 -416 0
-419 873 0
-419 416 0
420 -15 -13 0
-420 15 0
-420 13 0
421 -420 -36 0
-421 420 0
-421 36 0
422 -874 -419 0
-422 874 0
-422 419 0
423 -44 -757 0
-423 44 0
-423 757 0
424 -423 -7 0
-424 423 0
-424 7 0
425 -875 -422 0
-425 875 0
-425 422 0
426 -48 -715 0
-426 48 0
-426 715 0
427 -426 -704 0
-427 426 0
-427 704 0
428 -876 -425 0
-428 876 0
-428 425 0
429 -710 -8 0
-429 710 0
-429 8 0
430 -429 -33 0
-430 429 0
-430 33 0
431 -877 -428 0
-431 877 0
-431 428 0
432 -853 -766 0
-432 853 0
-432 766 0
433 -432 -28 0
-433 432 0
-433 28 0
434 -878 -431 0
-434 878 0
-434 431 0
435 -22 -706 0
-435 22 0
-435 706 0
436 -435 -35 0
-436 435 0
-436 35 0
437 -879 -434 0
-437 879 0
-437 434 0
438 -48 -784 0
-438 48 0
-438 784 0
439 -438 -13 0
-439 438 0
-439 13 0
440 -880 -437 0
-440 880 0
-440 437 0
441 -762 -8 0
-441 762 0
-441 8 0
442 -441 -801 0
-442 441 0
-442 801 0
443 -881 -440 0
-443 881 0
-443 440 0
444 -762 -803 0
-444 762 0
-444 803 0
445 -444 -24 0
-445 444 0
-445 24 0
446 -882 -443 0
-446 882 0
-446 443 0
447 -50 -803 0
-447 50 0
-447 803 0
448 -447 -700 0
-448 447 0
-448 700 0
449 -883 -446 0
-449 883 0
-449 446 0
450 -45 -26 0
-450 45 0
-450 26 0
451 -450 -28 0
-451 450 0
-451 28 0
452 -884 -449 0
-452 884 0
-452 449 0
453 -784 -731 0
-453 784 0
-453 731 0
454 -453 -3 0
-454 453 0
-454 3 0
455 -885 -452 0
-455 885 0
-455 452 0
456 -38 -25 0
-456 38 0
-456 25 0
457 -456 -712 0
-457 456 0
-457 712 0
458 -886 -455 0
-458 886 0
-458 455 0
459 -801 -751 0
-459 801 0
-459 751 0
460 -459 -36 0
-460 459 0
-460 36 0
461 -887 -458 0
-461 887 0
-461 458 0
462 -768 -39 0
-462 768 0
-462 39 0
463 -462 -860 0
-463 462 0
-463 860 0
464 -888 -461 0
-464 888 0
-464 461 0
465 -43 -18 0
-465 43 0
-465 18 0
466 -465 -46 0
-466 465 0
-466 46 0
467 -889 -464 0
-467 889 0
-467 464 0
468 -712 -801 0
-468 712 0
-468 801 0
469 -468 -751 0
-469 468 0
-469 751 0
470 -890 -467 0
-470 890 0
-470 467 0
471 -33 -26 0
-471 33 0
-471 26 0
472 -471 -816 0
-472 471 0
-472 816 0
473 -891 -470 0
-473 891 0
-473 470 0
474 -34 -21 0
-474 34 0
-474 21 0
475 -474 -23 0
-475 474 0
-475 23 0
476 -892 -473 0
-476 892 0
-476 473 0
477 -152 -24 0
-477 152 0
-477 24 0
478 -893 -476 0
-478 893 0
-478 476 0
479 -44 -738 0
-479 44 0
-479 738 0
480 -479 -35 0
-480 479 0
-480 35 0
481 -894 -478 0
-481 894 0
-481 478 0
482 -48 -26 0
-482 48 0
-482 26 0
483 -482 -33 0
-483 482 0
-483 33 0
484 -895 -481 0
-484 895 0
-484 481 0
485 -860 -17 0
-485 860 0
-485 17 0
486 -485 -764 0
-486 485 0
-486 764 0
487 -896 -484 0
-487 896 0
-487 484 0
488 -712 -13 0
-488 712 0
-488 13 0
489 -488 -3 0
-489 488 0
-489 3 0
490 -897 -487 0
-490 897 0
-490 487 0
491 -761 -766 0
-491 761 0
-491 766 0
492 -491 -847 0
-492 491 0
-492 847 0
493 -898 -490 0
-493 898 0
-493 490 0
494 -732 -4 0
-494 732 0
-494 4 0
495 -494 -775 0
-495 494 0
-495 775 0
496 -899 -493 0
-496 899 0
-496 493 0
497 -706 -710 0
-497 706 0
-497 710 0
498 -497 -801 0
-498 497 0
-498 801 0
499 -900 -496 0
-499 900 0
-499 496 0
500 -788 -712 0
-500 788 0
-500 712 0
501 -500 -791 0
-501 500 0
-501 791 0
502 -901 -499 0
-502 901 0
-502 499 0
503 -851 -831 0
-503 851 0
-503 831 0
504 -503 -11 0
-504 503 0
-504 11 0
505 -902 -502 0
-505 902 0
-505 502 0
506 -755 -10 0
-506 755 0
-506 10 0
507 -506 -28 0
-507 506 0
-507 28 0
508 -903 -505 0
-508 903 0
-508 505 0
509 -13 -746 0
-509 13 0
-509 746 0
510 -509 -42 0
-510 509 0
-510 42 0
511 -904 -508 0
-511 904 0
-511 508 0
512 -30 -812 0
-512 30 0
-512 812 0
513 -512 -791 0
-513 512 0
-513 791 0
514 -905 -511 0
-514 905 0
-514 511 0
515 -38 -853 0
-515 38 0
-515 853 0
516 -515 -42 0
-516 515 0
-516 42 0
517 -906 -514 0
-517 906 0
-517 514 0
518 -49 -717 0
-518 49 0
-518 717 0
519 -518 -23 0
-519 518 0
-519 23 0
520 -907 -517 0
-520 907 0
-520 517 0
521 -768 -33 0
-521 768 0
-521 33 0
522 -521 -704 0
-522 521 0
-522 704 0
523 -908 -520 0
-523 908 0
-523 520 0
524 -728 -751 0
-524 728 0
-524 751 0
525 -524 -36 0
-525 524 0
-525 36 0
526 -909 -523 0
-526 909 0
-526 523 0
527 -738 -851 0
-527 738 0
-527 851 0
528 -527 -31 0
-528 527 0
-528 31 0
529 -910 -526 0
-529 910 0
-529 526 0
530 -788 -738 0
-530 788 0
-530 738 0
531 -530 -47 0
-531 530 0
-531 47 0
532 -911 -529 0
-532 911 0
-532 529 0
533 -730 -720 0
-533 730 0
-533 720 0
534 -533 -801 0
-534 533 0
-534 801 0
535 -912 -532 0
-535 912 0
-535 532 0
536 -788 -762 0
-536 788 0
-536 762 0
537 -536 -732 0
-537 536 0
-537 732 0
538 -913 -535 0
-538 913 0
-538 535 0
539 -784 -853 0
-539 784 0
-539 853 0
540 -539 -730 0
-540 539 0
-540 730 0
541 -914 -538 0
-541 914 0
-541 538 0
542 -45 -41 0
-542 45 0
-542 41 0
543 -542 -20 0
-543 542 0
-543 20 0
544 -915 -541 0
-544 915 0
-544 541 0
545 -762 -32 0
-545 762 0
-545 32 0
546 -545 -764 0
-546 545 0
-546 764 0
547 -916 -544 0
-547 916 0
-547 544 0
548 -791 -13 0
-548 791 0
-548 13 0
549 -548 -739 0
-549 548 0
-549 739 0
550 -917 -547 0
-550 917 0
-550 547 0
551 -21 -700 0
-551 21 0
-551 700 0
552 -551 -791 0
-552 551 0
-552 791 0
553 -918 -550 0
-553 918 0
-553 550 0
554 -847 -42 0
-554 847 0
-554 42 0
555 -554 -801 0
-555 554 0
-555 801 0
556 -919 -553 0
-556 919 0
-556 553 0
557 -37 -8 0
-557 37 0
-557 8 0
558 -557 -781 0
-558 557 0
-558 781 0
559 -920 -556 0
-559 920 0
-559 556 0
560 -49 -23 0
-560 49 0
-560 23 0
561 -560 -751 0
-561 560 0
-561 751 0
562 -921 -559 0
-562 921 0
-562 559 0
563 -43 -724 0
-563 43 0
-563 724 0
564 -563 -784 0
-564 563 0
-564 784 0
565 -922 -562 0
-565 922 0
-565 562 0
566 -758 -710 0
-566 758 0
-566 710 0
567 -566 -46 0
-567 566 0
-567 46 0
568 -923 -565 0
-568 923 0
-568 565 0
569 -755 -712 0
-569 755 0
-569 712 0
570 -569 -42 0
-570 569 0
-570 42 0
571 -924 -568 0
-571 924 0
-571 568 0
572 -775 -44 0
-572 775 0
-572 44 0
573 -572 -15 0
-573 572 0
-573 15 0
574 -925 -571 0
-574 925 0
-574 571 0
575 -730 -853 0
-575 730 0
-575 853 0
576 -575 -40 0
-576 575 0
-576 40 0
577 -926 -574 0
-577 926 0
-577 574 0
578 -788 -810 0
-578 788 0
-578 810 0
579 -578 -731 0
-579 578 0
-579 731 0
580 -927 -577 0
-580 927 0
-580 577 0
581 -27 -706 0
-581 27 0
-581 706 0
582 -581 -791 0
-582 581 0
-582 791 0
583 -928 -580 0
-583 928 0
-583 580 0
584 -27 -18 0
-584 27 0
-584 18 0
585 -584 -764 0
-585 584 0
-585 764 0
586 -929 -583 0
-586 929 0
-586 583 0
587 -803 -710 0
-587 803 0
-587 710 0
588 -587 -775 0
-588 587 0
-588 775 0
589 -930 -586 0
-589 930 0
-589 586 0
590 -46 -8 0
-590 46 0
-590 8 0
591 -590 -764 0
-591 590 0
-591 764 0
592 -931 -589 0
-592 931 0
-592 589 0
593 -818 -25 0
-593 818 0
-593 25 0
594 -593 -757 0
-594 593 0
-594 757 0
595 -932 -592 0
-595 932 0
-595 592 0
596 -46 -717 0
-596 46 0
-596 717 0
597 -596 -15 0
-597 596 0
-597 15 0
598 -933 -595 0
-598 933 0
-598 595 0
599 -791 -21 0
-599 791 0
-599 21 0
600 -599 -36 0
-600 599 0
-600 36 0
601 -934 -598 0
-601 934 0
-601 598 0
602 -32 -16 0
-602 32 0
-602 16 0
603 -602 -816 0
-603 602 0
-603 816 0
604 -935 -601 0
-604 935 0
-604 601 0
605 -775 -731 0
-605 775 0
-605 731 0
606 -605 -31 0
-606 605 0
-606 31 0
607 -936 -604 0
-607 936 0
-607 604 0
608 -19 -777 0
-608 19 0
-608 777 0
609 -608 -704 0
-609 608 0
-609 704 0
610 -937 -607 0
-610 937 0
-610 607 0
611 -41 -1 0
-611 41 0
-611 1 0
612 -611 -791 0
-612 611 0
-612 791 0
613 -938 -610 0
-613 938 0
-613 610 0
614 -37 -15 0
-614 37 0
-614 15 0
615 -614 -791 0
-615 614 0
-615 791 0
616 -939 -613 0
-616 939 0
-616 613 0
617 -44 -727 0
-617 44 0
-617 727 0
618 -617 -6 0
-618 617 0
-618 6 0
619 -940 -616 0
-619 940 0
-619 616 0
620 -40 -730 0
-620 40 0
-620 730 0
621 -620 -31 0
-621 620 0
-621 31 0
622 -941 -619 0
-622 941 0
-622 619 0
623 -775 -710 0
-623 775 0
-623 710 0
624 -623 -777 0
-624 623 0
-624 777 0
625 -942 -622 0
-625 942 0
-625 622 0
626 -727 -724 0
-626 727 0
-626 724 0
627 -626 -735 0
-627 626 0
-627 735 0
628 -943 -625 0
-628 943 0
-628 625 0
629 -784 -715 0
-629 784 0
-629 715 0
630 -629 -744 0
-630 629 0
-630 744 0
631 -944 -628 0
-631 944 0
-631 628 0
632 -791 -9 0
-632 791 0
-632 9 0
633 -632 -6 0
-633 632 0
-633 6 0
634 -945 -631 0
-634 945 0
-634 631 0
635 -788 -803 0
-635 788 0
-635 803 0
636 -635 -726 0
-636 635 0
-636 726 0
637 -946 -634 0
-637 946 0
-637 634 0
638 -831 -4 0
-638 831 0
-638 4 0
639 -638 -728 0
-639 638 0
-639 728 0
640 -947 -637 0
-640 947 0
-640 637 0
641 -831 -724 0
-641 831 0
-641 724 0
642 -641 -26 0
-642 641 0
-642 26 0
643 -948 -640 0
-643 948 0
-643 640 0
644 -755 -34 0
-644 755 0
-644 34 0
645 -644 -777 0
-645 644 0
-645 777 0
646 -949 -643 0
-646 949 0
-646 643 0
647 -27 -710 0
-647 27 0
-647 710 0
648 -647 -851 0
-648 647 0
-648 851 0
649 -950 -646 0
-649 950 0
-649 646 0
650 -12 -8 0
-650 12 0
-650 8 0
651 -650 -728 0
-651 650 0
-651 728 0
652 -951 -649 0
-652 951 0
-652 649 0
653 -45 -1 0
-653 45 0
-653 1 0
654 -653 -30 0
-654 653 0
-654 30 0
655 -952 -652 0
-655 952 0
-655 652 0
656 -39 -37 0
-656 39 0
-656 37 0
657 -656 -816 0
-657 656 0
-657 816 0
658 -953 -655 0
-658 953 0
-658 655 0
659 -758 -26 0
-659 758 0
-659 26 0
660 -659 -791 0
-660 659 0
-660 791 0
661 -954 -658 0
-661 954 0
-661 658 0
662 -50 -762 0
-662 50 0
-662 762 0
663 -662 -735 0
-663 662 0
-663 735 0
664 -955 -661 0
-664 955 0
-664 661 0
665 -230 -44 0
-665 230 0
-665 44 0
666 -956 -664 0
-666 956 0
-666 664 0
667 -22 -812 0
-667 22 0
-667 812 0
668 -667 -6 0
-668 667 0
-668 6 0
669 -957 -666 0
-669 957 0
-669 666 0
670 -781 -727 0
-670 781 0
-670 727 0
671 -670 -860 0
-671 670 0
-671 860 0
672 -958 -669 0
-672 958 0
-672 669 0
673 -20 -709 0
-673 20 0
-673 709 0
674 -673 -751 0
-674 673 0
-674 751 0
675 -959 -672 0
-675 959 0
-675 672 0
676 -787 -724 0
-676 787 0
-676 724 0
677 -676 -715 0
-677 676 0
-677 715 0
678 -960 -675 0
-678 960 0
-678 675 0
679 -42 -24 0
-679 42 0
-679 24 0
680 -679 -738 0
-680 679 0
-680 738 0
681 -961 -678 0
-681 961 0
-681 678 0
682 -781 -715 0
-682 781 0
-682 715 0
683 -682 -801 0
-683 682 0
-683 801 0
684 -962 -681 0
-684 962 0
-684 681 0
685 -755 -13 0
-685 755 0
-685 13 0
686 -685 -732 0
-686 685 0
-686 732 0
687 -963 -684 0
-687 963 0
-687 684 0
688 -22 -2 0
-688 22 0
-688 2 0
689 -688 -816 0
-689 688 0
-689 816 0
690 -964 -687 0
-690 964 0
-690 687 0
691 -41 -19 0
-691 41 0
-691 19 0
692 -691 -24 0
-692 691 0
-692 24 0
693 -965 -690 0
-693 965 0
-693 690 0
694 -45 -19 0
-694 45 0
-694 19 0
695 -694 -47 0
-695 694 0
-695 47 0
696 -966 -693 0
-696 966 0
-696 693 0
697 -810 -710 0
-697 810 0
-697 710 0
698 -697 -7 0
-698 697 0
-698 7 0
699 -967 -696 0
-699 967 0
-699 696 0
-700 -2 0
700 2 0
-701 -54 0
701 54 0
-702 -52 0
702 52 0
-703 -57 0
703 57 0
-704 -6 0
704 6 0
-705 -60 0
705 60 0
-706 -11 0
706 11 0
-707 -63 0
707 63 0
-708 -66 0
708 66 0
-709 -16 0
709 16 0
-710 -10 0
710 10 0
-711 -69 0
711 69 0
-712 -18 0
712 18 0
-713 -72 0
713 72 0
-714 -75 0
714 75 0
-715 -21 0
715 21 0
-716 -78 0
716 78 0
-717 -24 0
717 24 0
-718 -81 0
718 81 0
-719 -84 0
719 84 0
-720 -14 0
720 14 0
-721 -87 0
721 87 0
-722 -90 0
722 90 0
-723 -30 0
723 30 0
-724 -4 0
724 4 0
-725 -93 0
725 93 0
-726 -22 0
726 22 0
-727 -13 0
727 13 0
-728 -7 0
728 7 0
-729 -96 0
729 96 0
-730 -33 0
730 33 0
-731 -32 0
731 32 0
-732 -34 0
732 34 0
-733 -99 0
733 99 0
-734 -102 0
734 102 0
-735 -35 0
735 35 0
-736 -105 0
736 105 0
-737 -108 0
737 108 0
-738 -28 0
738 28 0
-739 -36 0
739 36 0
-740 -111 0
740 111 0
-741 -17 0
741 17 0
-742 -114 0
742 114 0
-743 -117 0
743 117 0
-744 -25 0
744 25 0
-745 -120 0
745 120 0
-746 -1 0
746 1 0
-747 -123 0
747 123 0
-748 -126 0
748 126 0
-749 -129 0
749 129 0
-750 -132 0
750 132 0
-751 -3 0
751 3 0
-752 -135 0
752 135 0
-753 -138 0
753 138 0
-754 -141 0
754 141 0
-755 -37 0
755 37 0
-756 -144 0
756 144 0
-757 -9 0
757 9 0
-758 -40 0
758 40 0
-759 -147 0
759 147 0
-760 -150 0
760 150 0
-761 -43 0
761 43 0
-762 -39 0
762 39 0
-763 -153 0
763 153 0
-764 -29 0
764 29 0
-765 -156 0
765 156 0
-766 -8 0
766 8 0
-767 -159 0
767 159 0
-768 -44 0
768 44 0
-769 -162 0
769 162 0
-770 -165 0
770 165 0
-771 -168 0
771 168 0
-772 -171 0
772 171 0
-773 -174 0
773 174 0
-774 -177 0
774 177 0
-775 -47 0
775 47 0
-776 -180 0
776 180 0
-777 -5 0
777 5 0
-778 -183 0
778 183 0
-779 -186 0
779 186 0
-780 -189 0
780 189 0
-781 -42 0
781 42 0
-782 -192 0
782 192 0
-783 -195 0
783 195 0
-784 -41 0
784 41 0
-785 -198 0
785 198 0
-786 -201 0
786 201 0
-787 -49 0
787 49 0
-788 -48 0
788 48 0
-789 -204 0
789 204 0
-790 -207 0
790 207 0
-791 -31 0
791 31 0
-792 -210 0
792 210 0
-793 -213 0
793 213 0
-794 -216 0
794 216 0
-795 -219 0
795 219 0
-796 -222 0
796 222 0
-797 -225 0
797 225 0
-798 -228 0
798 228 0
-799 -231 0
799 231 0
-800 -234 0
800 234 0
-801 -15 0
801 15 0
-802 -237 0
802 237 0
-803 -38 0
803 38 0
-804 -240 0
804 240 0
-805 -243 0
805 243 0
-806 -246 0
806 246 0
-807 -249 0
807 249 0
-808 -252 0
808 252 0
-809 -255 0
809 255 0
-810 -45 0
810 45 0
-811 -258 0
811 258 0
-812 -12 0
812 12 0
-813 -261 0
813 261 0
-814 -264 0
814 264 0
-815 -267 0
815 267 0
-816 -23 0
816 23 0
-817 -270 0
817 270 0
-818 -27 0
818 27 0
-819 -273 0
819 273 0
-820 -275 0
820 275 0
-821 -278 0
821 278 0
-822 -281 0
822 281 0
-823 -284 0
823 284 0
-824 -287 0
824 287 0
-825 -290 0
825 290 0
-826 -293 0
826 293 0
-827 -296 0
827 296 0
-828 -299 0
828 299 0
-829 -302 0
829 302 0
-830 -305 0
830 305 0
-831 -19 0
831 19 0
-832 -308 0
832 308 0
-833 -311 0
833 311 0
-834 -314 0
834 314 0
-835 -317 0
835 317 0
-836 -320 0
836 320 0
-837 -323 0
837 323 0
-838 -326 0
838 326 0
-839 -329 0
839 329 0
-840 -332 0
840 332 0
-841 -335 0
841 335 0
-842 -338 0
842 338 0
-843 -341 0
843 341 0
-844 -344 0
844 344 0
-845 -347 0
845 347 0
-846 -350 0
846 350 0
-847 -46 0
847 46 0
-848 -353 0
848 353 0
-849 -356 0
849 356 0
-850 -359 0
850 359 0
-851 -26 0
851 26 0
-852 -362 0
852 362 0
-853 -20 0
853 20 0
-854 -365 0
854 365 0
-855 -368 0
855 368 0
-856 -371 0
856 371 0
-857 -374 0
857 374 0
-858 -377 0
858 377 0
-859 -379 0
859 379 0
-860 -50 0
860 50 0
-861 -382 0
861 382 0
-862 -385 0
862 385 0
-863 -388 0
863 388 0
-864 -391 0
864 391 0
-865 -394 0
865 394 0
-866 -397 0
866 397 0
-867 -400 0
867 400 0
-868 -403 0
868 403 0
-869 -406 0
869 406 0
-870 -409 0
870 409 0
-871 -412 0
871 412 0
-872 -415 0
872 415 0
-873 -418 0
873 418 0
-874 -421 0
874 421 0
-875 -424 0
875 424 0
-876 -427 0
876 427 0
-877 -430 0
877 430 0
-878 -433 0
878 433 0
-879 -436 0
879 436 0
-880 -439 0
880 439 0
-881 -442 0
881 442 0
-882 -445 0
882 445 0
-883 -448 0
883 448 0
-884 -451 0
884 451 0
-885 -454 0
885 454 0
-886 -457 0
886 457 0
-887 -460 0
887 460 0
-888 -463 0
888 463 0
-889 -466 0
889 466 0
-890 -469 0
890 469 0
-891 -472 0
891 472 0
-892 -475 0
892 475 0
-893 -477 0
893 477 0
-894 -480 0
894 480 0
-895 -483 0
895 483 0
-896 -486 0
896 486 0
-897 -489 0
897 489 0
-898 -492 0
898 492 0
-899 -495 0
899 495 0
-900 -498 0
900 498 0
-901 -501 0
901 501 0
-902 -504 0
902 504 0
-903 -507 0
903 507 0
-904 -510 0
904 510 0
-905 -513 0
905 513 0
-906 -516 0
906 516 0
-907 -519 0
907 519 0
-908 -522 0
908 522 0
-909 -525 0
909 525 0
-910 -528 0
910 528 0
-911 -531 0
911 531 0
-912 -534 0
912 534 0
-913 -537 0
913 537 0
-914 -540 0
914 540 0
-915 -543 0
915 543 0
-916 -546 0
916 546 0
-917 -549 0
917 549 0
-918 -552 0
918 552 0
-919 -555 0
919 555 0
-920 -558 0
920 558 0
-921 -561 0
921 561 0
-922 -564 0
922 564 0
-923 -567 0
923 567 0
-924 -570 0
924 570 0
-925 -573 0
925 573 0
-926 -576 0
926 576 0
-927 -579 0
927 579 0
-928 -582 0
928 582 0
-929 -585 0
929 585 0
-930 -588 0
930 588 0
-931 -591 0
931 591 0
-932 -594 0
932 594 0
-933 -597 0
933 597 0
-934 -600 0
934 600 0
-935 -603 0
935 603 0
-936 -606 0
936 606 0
-937 -609 0
937 609 0
-938 -612 0
938 612 0
-939 -615 0
939 615 0
-940 -618 0
940 618 0
-941 -621 0
941 621 0
-942 -624 0
942 624 0
-943 -627 0
943 627 0
-944 -630 0
944 630 0
-945 -633 0
945 633 0
-946 -636 0
946 636 0
-947 -639 0
947 639 0
-948 -642 0
948 642 0
-949 -645 0
949 645 0
-950 -648 0
950 648 0
-951 -651 0
951 651 0
-952 -654 0
952 654 0
-953 -657 0
953 657 0
-954 -660 0
954 660 0
-955 -663 0
955 663 0
-956 -665 0
956 665 0
-957 -668 0
957 668 0
-958 -671 0
958 671 0
-959 -674 0
959 674 0
-960 -677 0
960 677 0
-961 -680 0
961 680 0
-962 -683 0
962 683 0
-963 -686 0
963 686 0
-964 -689 0
964 689 0
-965 -692 0
965 692 0
-966 -695 0
966 695 0
-967 -698 0
967 698 0
699 0
